4706
2
216, 183, 299, 245, 68, 128, 295, 63, 127, 11, 90, 294, 146, 113, 259, 18, 216, 212, 34, 182, 50, 77
98, 73, 91, 99, 73, 47, 36, 81, 30, 18, 48, 44, 23, 82, 10, 60, 81, 53, 96, 70, 42, 31
2, 1, 1, 1, 2, 2, 1, 1, 1, 2, 2, 1, 1, 2, 2, 1, 2, 1, 2, 2, 2, 2